c generated by Julia
p edge 29 203
e 1 2
e 1 3
e 2 3
e 1 4
e 2 4
e 1 5
e 2 5
e 1 6
e 2 6
e 1 7
e 2 7
e 4 7
e 6 7
e 1 8
e 2 8
e 3 8
e 5 8
e 6 8
e 1 9
e 4 9
e 6 9
e 1 10
e 5 10
e 6 10
e 9 10
e 1 11
e 3 11
e 5 11
e 7 11
e 1 12
e 3 12
e 5 12
e 7 12
e 9 12
e 10 12
e 11 12
e 1 13
e 4 13
e 5 13
e 7 13
e 10 13
e 11 13
e 1 14
e 3 14
e 4 14
e 8 14
e 9 14
e 10 14
e 13 14
e 1 15
e 3 15
e 4 15
e 6 15
e 8 15
e 9 15
e 11 15
e 2 16
e 3 16
e 4 16
e 9 16
e 11 16
e 12 16
e 14 16
e 2 17
e 4 17
e 5 17
e 7 17
e 9 17
e 11 17
e 15 17
e 2 18
e 4 18
e 5 18
e 6 18
e 10 18
e 13 18
e 15 18
e 16 18
e 2 19
e 3 19
e 5 19
e 6 19
e 10 19
e 11 19
e 14 19
e 16 19
e 17 19
e 18 19
e 2 20
e 3 20
e 6 20
e 7 20
e 9 20
e 12 20
e 13 20
e 16 20
e 18 20
e 2 21
e 3 21
e 7 21
e 8 21
e 10 21
e 13 21
e 14 21
e 17 21
e 20 21
e 2 22
e 4 22
e 5 22
e 8 22
e 9 22
e 10 22
e 12 22
e 16 22
e 17 22
e 21 22
e 5 23
e 8 23
e 9 23
e 11 23
e 13 23
e 14 23
e 15 23
e 16 23
e 17 23
e 18 23
e 20 23
e 21 23
e 3 24
e 6 24
e 9 24
e 10 24
e 11 24
e 13 24
e 15 24
e 17 24
e 19 24
e 20 24
e 21 24
e 22 24
e 6 25
e 7 25
e 8 25
e 10 25
e 11 25
e 12 25
e 15 25
e 16 25
e 18 25
e 21 25
e 22 25
e 23 25
e 3 26
e 4 26
e 7 26
e 10 26
e 12 26
e 14 26
e 15 26
e 17 26
e 18 26
e 19 26
e 21 26
e 25 26
e 3 27
e 4 27
e 5 27
e 8 27
e 12 27
e 13 27
e 15 27
e 18 27
e 20 27
e 22 27
e 24 27
e 26 27
e 4 28
e 6 28
e 7 28
e 8 28
e 11 28
e 13 28
e 14 28
e 16 28
e 19 28
e 22 28
e 24 28
e 25 28
e 27 28
e 5 29
e 6 29
e 7 29
e 8 29
e 9 29
e 12 29
e 14 29
e 17 29
e 19 29
e 20 29
e 23 29
e 26 29
e 27 29
e 28 29
